2197.42 247324
195484 32990.3
230488 5459.88
8923.03 223305
128132 120197
195270 37175.9
177376 68812.7
67100.6 176452
138721 106976
53312 195168
166749 79965.3
27475.4 207307
30107.8 206586
224220 12948.4
24536.3 210613
156523 89992
182548 63279.7
84577 150693
217548 25807.1
153319 90889.8
174856 73781.9
3529.11 235673
27273 208483
99692 146020
220479 15334.4
190252 62187.8
90982.2 149468
115950 125871
30744.7 205378
213020 29699.8
229835 6293.91
102958 142306
2512.61 237725
222359 13949
211368 31069
5459.88 232286
170690 73901.8
116317 120598
105994 135445
130143 119461
22790.2 213780
73391.9 172921
20248.5 222439
204383 32538.7
133193 109930
142557 96996.4
160619 84684.6
190749 60673.1
215621 26332.4
83728.6 157400
79522.4 163756
30509 206426
206301 32388.8
26576.3 210396
206598 32111.4
142683 94549.5
168684 76902.4
99772.3 146017
106336 133071
116998 120581
24221.9 213468
180802 65790.1
